Reproduction of the Original Problem/Instances/S1-15/S1-15-15-2-l.txt
     100      15    0.15
       2       2       3       3       1       3       3       1       2       2       3       1       2       3       1       7      13       2       1       7      10       9       4       3      14       9       4      14      14      10       8
       3       3       1       2       2       1       1       3       3       1       1       1       3       3       1       7       7      12       0       4       8      13       6      15      12      11      14       7       9      12       9
       3       3       2       3       2       2       3       1       1       2       3       2       2       1       2      10      11      11      16      12       3      11      11       5       2      11      10       4       5       5       6
       1       3       1       1       3       2       3       2       2       1       2       2       2       2       1       6       2       9       2      11       4       9       5      11      15       6       5      12      13      12       8
       2       1       3       1       2       3       3       3       1       1       1       2       2       2       1      15       3      13      13       1       9       5      16       4       2      12      16       9      12       6      11
       3       3       3       1       1       2       1       1       2       1       3       3       1       2       2       5       2      11       7       6      15       6      15      11      15      10      14       3       6      15       6
       1       2       3       1       2       3       1       2       2       1       3       1       3       2       2      13      15       2      15       5      15       1       2       0      12      12       1       9      14       9       8
       1       2       2       1       3       1       2       1       1       1       2       1       1       2       3      10      16      10      15       0       8      15       1      14      16      12       4       0       4      14       7
       3       3       2       3       3       2       2       1       3       2       1       3       3       1       1      14      10      13       2      13       8       1       7      15      11      11       6       9      16       2      10
       2       3       2       1       3       1       2       3       2       2       2       2       2       2       3       2       1       9       0      13      15       9      10       7       3      14       3       3      11      11       7
       1       2       2       1       1       3       1       3       2       1       3       2       3       1       1       6       9       8       5      12      14      14       7       8       8       8       4       6      14      13       8
       2       3       2       1       1       1       2       1       2       2       1       3       1       3       2      13       1      13       3      12      11       0      10       1      16       0      10       7       8       4       8
       1       3       1       1       1       3       1       1       1       3       1       2       2       1       2       4       4       6      13      12      11      10       1       8       5      15       1       1      14      14      11
       2       2       1       1       2       1       3       2       3       2       2       1       3       3       2       1       5      13      11      13      14       7       3      12       3       8       0       8      14      14       7
       1       2       3       1       2       2       3       3       3       2       3       3       1       3       3      15      16       9      10      12      12      16       2       3       3       6       2       5       6      10      10
       3       3       1       1       1       2       1       3       1       2       2       1       3       1       2       9      16      12       0      11      15       5      10       2      15       3      16       3      13      16      10
       3       3       2       3       3       2       3       1       1       3       2       1       3       3       1       1       4       0      11       6      16       4      15       5      13      14       5      12       0       9      10
       3       3       2       1       1       1       2       1       3       2       1       1       3       1       3       7      10      16      10      16      14       3      14      10      10       4       7      13      11       3       7
       3       2       3       3       1       3       3       3       2       1       2       3       2       1       2       6       6      10       0      11       6      11       9       4      16       2       2       7       3       1       6
       1       3       3       2       2       3       2       3       1       3       1       1       2       3       2      16       5       9      15       8      16       9       2      15      13      14       8       4       0       3       6
       2       3       1       1       1       3       3       3       3       2       3       2       3       2       1      12      11      12       9       8       8       7       3       2       4       7      14       8      14      15       8
       1       2       2       1       3       1       3       2       3       2       1       2       1       2       3       3       1       8       0      12       4       6      10      16       8      12      14      15      13       0       7
       1       3       2       2       2       1       2       3       2       1       2       1       2       3       2      12       8       1       7       7      10      14       8       3       8       2       6       4       5      13       8
       2       1       1       3       2       1       3       3       1       2       2       3       1       1       2      11       4      15       7      14      12       9       5      13      11       6      11       2       4       3      11
       1       2       1       1       1       1       1       3       1       1       2       1       1       3       3       5       0       6       7      14       9       7      10      14      16      10      14       8       4      14       9
       2       2       1       3       3       2       2       2       3       1       2       2       1       2       3       6       8      14      16      11       1       1       1       8       0       1      13      14       3       7      10
       1       2       2       1       3       1       3       2       2       3       1       3       3       1       2       4      13       3       8      16      11      15      16      12       3       2       9       1      10      16       6
       2       3       2       3       1       3       1       3       1       2       1       1       2       1       2      12       3       8       2       2       8       6       4       0      10       9       7      12      11      10       6
       2       3       3       3       1       2       2       2       2       3       2       2       2       2       3      12       2      10       9      14       7      14       4       7       7       2      16      14       4      12      11
       2       1       1       1       3       2       3       3       1       3       2       3       1       1       1      12       1      15      10      13      13       2       7      15      15       4       8      11       8      11       7
       2       1       2       2       1       1       3       2       2       3       2       3       1       2       1      12       8       3       3       5       7       8      13       8       2      10       8       4      10       1      10
       1       1       1       2       2       1       1       1       2       1       3       2       1       3       3       4      16      13       1      11      13      10      16       5      12       0       3      12       1       8       7
       1       2       3       2       2       3       2       1       1       2       2       1       3       3       1      10       4       2      14      15      13      15       8       7      14       3      16      11       4       8       8
       3       2       2       1       1       1       3       3       1       3       3       1       3       2       3      14      11      13       3      14      15      15       9      13       0       2      16       6       2       7       9
       3       3       3       3       3       1       1       3       2       1       3       1       3       2       3       6       6       4      11      16       0       2      11       1       8      16       9       8      10       6       8
       1       3       2       1       1       2       1       3       1       3       2       3       3       1       3      11      10      12       7       9       5      10      10       2       1      15       0       9       2       1      11
       3       3       1       2       1       1       1       2       2       1       1       3       2       1       3       0       9      12       7      10       7       4       5      16      13      13       0       8      11      11       7
       2       1       1       2       2       3       3       1       3       1       2       2       1       3       2       9      14      13       1      12       0       9       0      12       2      14      12      16       3      10       7
       2       2       1       3       2       3       1       3       3       3       1       3       1       1       1       3       0      12      14       0      10      12      12       1       1       0       7      13      12      10       9
       3       1       2       2       1       3       1       1       1       3       1       1       2       2       3       8       6       0      16      13       3      11       8       6      16      15       9       2       9       1       8
       1       3       2       1       2       3       1       3       2       2       3       2       3       1       3      10      10       7      14       8      12       6      14       8       1      16      16       5       3      11       7
       3       1       3       3       2       3       3       2       3       2       2       1       1       2       2      10      16      12      15       4       6       3       8      15       1       7      16      13       5      15       9
       2       2       2       3       2       1       1       1       3       1       1       2       3       3       3       4       6       9       8       4      10       1       6      11       1      16      13       1      16       2      10
       2       3       3       3       3       1       2       3       1       3       3       1       2       2       3       5      13      10      12      12       0      11       2       8       3       2       2      15       1       1      10
       1       1       2       3       3       2       2       2       2       1       2       1       1       1       2       5       6      10       8       3      12       6       3      13       0       9       6       7       5       6       6
       2       1       2       1       3       1       1       1       2       1       2       1       1       1       1       1      10       6       4       0       6       2      12       5      10      13       6       5       7       2       8
       3       3       2       1       3       2       1       3       1       1       1       1       3       3       2       5       0       4       3       1      15       0      16       9      15      14       2      15       6       8       9
       2       2       2       3       1       1       2       1       2       2       1       2       2       3       1       2       2       9       3       0       8       1      12      16      10       9       4       1      13       2       7
       3       2       1       1       3       2       1       1       1       1       1       1       3       3       2      10      15      14      15      11      16      10       4       4       6       6       7       2       1       8       8
       2       3       3       1       2       2       2       2       1       2       2       1       1       3       1       9       5       1      10      14       5       5      11       4      15       4       5       5      14       7       8
       2       1       2       1       3       2       3       1       1       3       3       3       2       3       2       4       2       9      16       7       9       4      15       3      14      16       1       4      14       4       8
       1       2       3       1       3       1       1       1       3       1       2       1       2       1       1      10      13       9       5       1       4      13       5       5       4      13      13       9       8      10       9
       3       2       1       1       3       1       3       3       2       3       3       3       3       1       3      13      16       3      12      15      16      14       3       5      10      11       4       5       6       3      10
       3       2       3       1       3       2       3       3       1       3       2       3       1       1       1       6      11       0       9       2       5      12      10       8       8      10       6       9       8       0       7
       2       1       3       2       3       3       3       2       1       2       3       3       1       2       3       2       9       8      10       9       4       9      11       2      14      14      15       1       5      13       6
       3       1       2       1       2       1       3       1       3       1       2       1       3       3       3       0      13      13      15      11       9       9      11       2       1       6      12       3      16      13       7
       3       1       2       3       1       2       1       1       3       3       2       3       1       2       3       8      15      10      11       1      10      12      15      11       2      16      11      12       6       3       8
       1       3       1       1       1       2       2       3       1       2       1       2       3       1       3       7       2       4      14      12      10      12       3       4      13      13       5      16       4       3       9
       3       2       1       3       2       1       1       3       1       1       3       2       3       1       1      11      15       8       8      10       9       6       9      15       8      10       4      15       3      16      11
       1       3       2       1       2       2       2       3       2       2       1       1       1       3       1      16      13       7      16       0       7      10      10      10      15       1       8      14       3       2       6
       3       3       3       3       3       3       3       2       2       1       2       1       1       3       2      10       6       1       6      15       8       7       7       2       4       2      12       9      10      13       8
       2       2       2       2       1       3       3       2       1       2       3       3       1       1       1       2       7       4       3       4       6       0      14       1      16      10       4      16       5       6       9
       2       3       2       2       3       2       1       3       1       2       3       2       3       1       2       3      12       8       7      15       0      10       0      13       7      15      14       8       7       6       7
       1       3       2       3       3       2       2       3       2       1       1       3       2       1       2      10       9       3      11       2      13      11      15      14      12       8       9      12      10       2       9
       1       1       1       3       3       1       3       2       3       1       1       1       2       3       3      12       0      12      14      12       9       6       9      10       8       9       3      14      10       9       8
       1       1       1       2       1       2       3       3       3       3       1       1       1       2       1       4       0      12       1       7      11      10       2      11       9       9       4       0      15       2      11
       3       3       1       1       3       1       1       2       2       3       3       3       3       1       1       5       2       4      10      10       2      13      11      15       5      12       6       8      13       7      10
       3       1       3       2       1       3       2       2       2       3       2       2       1       2       1      12      15      14       5      16      11      11      12      15      15       8       8       4       8      16      11
       3       2       3       1       2       1       1       1       2       2       3       1       2       1       2      12       4       0      11      13       5       8       5       4      15       7       8       7      11      15      10
       2       2       1       2       3       1       2       2       2       1       3       1       1       3       3       9       2       5       1       2       9       3      12       3       3       1       1      13       1      12       6
       3       1       1       3       1       3       3       2       3       2       1       3       3       1       1       8      16       6       7       8       6       6      16       9       8       8      11      16       9      10       7
       2       3       3       3       3       2       1       1       1       3       3       1       3       2       1       8      14       5       3      14       1       6      13       5       8       6      16      13       8       4       9
       1       2       1       3       1       1       3       1       1       3       3       2       3       3       1      13      12       6       8       0       6       8       5       1       4       8      15      10      16       9      11
       2       3       3       2       3       2       2       3       2       2       3       1       2       2       1      16      13       1       1      13       4      10      15       3       7       5       6       5       8      10       8
       2       1       2       3       3       1       1       2       1       2       3       2       3       1       1       3      12       7      11      12       9      16       6      16       1      11      11       9       3       1       7
       2       1       3       3       1       1       2       2       1       3       2       2       1       2       3      14       8      14       4       1       1       0      10       1      10       6       8      16       2       1       8
       2       1       2       3       2       3       2       1       3       2       2       3       1       3       1       3      12       4       4       2      11      12      16      13       4      13      12      15      11      15      10
       3       3       2       3       2       3       3       3       2       2       1       2       1       2       1       5       1      15       1      11       2      12       6      10      10       9      14      16       4       4       6
       2       2       1       2       3       1       3       3       1       1       3       3       2       3       2      12      10       0       5       8      10      14      15       6      12       4      13       7       4       2       8
       1       2       1       3       3       1       1       3       3       2       1       1       1       1       1      11      11      11       0       6       4      13      16      11       5       0      15      10      14      14       7
       2       3       1       1       2       2       2       3       1       1       2       3       1       1       1       8       6       8      12      10       2       5       1       1       4      16      12       5      12       2      10
       2       1       2       2       1       1       3       1       1       2       2       1       3       1       3       8       4       1       4       0      16       3       5      11       8       1      10       9       6       9      11
       3       3       1       1       2       2       2       1       1       3       2       2       1       1       1      11       4      16       9      10       5       4       9      16       8      14       8      14       9       6      11
       2       2       2       2       1       1       3       1       2       1       1       3       1       3       2      14       8       4      13      10       0       5       9      14       5       4      11       1       8       0       7
       2       2       1       2       3       2       1       3       2       1       1       1       2       2       3       0       2       1       0      11      10      16       4       4      13       6       3       9       8      14       7
       1       2       3       2       2       3       1       2       1       1       3       3       1       1       2      14       3      14       7      16      15       4      12       4       2      14       1       1       2       8      10
       3       2       1       1       3       2       1       1       1       3       3       3       2       1       2      11       4       2      12       9      13      10      10      11      10      15       4       3      10       5       7
       2       2       1       3       1       1       1       1       1       1       3       3       2       3       1       7      16      12      15       6       2       2      11      16      15       7      10       6       9      16       9
       2       1       1       2       1       2       1       2       3       3       3       2       3       3       1      12       9      12       4      10       7       1      13       2       3      10       5      10      12      14       6
       1       1       2       3       3       2       1       2       3       3       1       2       3       3       1      11       8       6      14       8       6      13       0       6       1       4       4      15       7      11       6
       1       3       3       1       1       2       1       2       3       3       2       3       3       2       1       2       1      16       1      15      16       8      11       9       8       3      13      15      15       1      10
       2       1       1       1       2       2       2       1       2       2       3       3       3       2       3      14       3       0      13       2      12      12       2       3      13      16       0      16       5       4       9
       1       2       1       1       2       2       2       2       2       1       1       1       1       2       3       4      11       0       9       0      15       4       5       2       5       1       4       0      11      16       7
       2       3       2       2       1       1       3       3       2       1       1       2       3       3       3       1      16       7      16       9      14      10      10      11      13       6       6       1       4      12      11
       1       3       1       3       1       2       3       1       2       1       3       2       3       1       3       4       4       4       0       3      11       5      13      10      14      10       1      16       8      12       7
       2       1       1       1       1       1       3       1       1       3       1       3       1       3       1      12      12       4       5       8       9       4      14       6      10      13       7       0       1       1       7
       3       2       2       1       1       3       1       3       3       3       2       3       2       2       2       1      16      10      13       0       9       0      14       8      12       7       0      13       0      14       9
       3       3       2       2       1       1       1       3       1       3       3       3       2       2       3      12      15      15       9      11       1      13       2       4       6       5      12       7      12       6       7
       1       2       3       2       1       3       1       2       1       3       2       3       2       3       3       6       6      16      13       8      11       9      11      13       8       1      15       9      16      13      10
       2       1       2       3       1       3       1       3       2       3       1       3       1       3       1      12       1      10      12       5      14       7       2       1       0      15      12      10       8       1       6
      78      92      63      73      69      66      55      83      81      97      88      79      85      84      65
     217     219     150     143     160     149     119     193     191     197     181     215     189     178     165
     381     361     210     256     308     221     163     363     392     451     430     350     281     396     180